<?xml version = "1.0" encoding="UTF-8" standalone="yes"?>
<CPLEXSolution version="1.2">
 <header
   problemName="inst_17_cut_n1"
   objectiveValue="100.70869565217392"
   solutionTypeValue="1"
   solutionTypeString="basic"
   solutionStatusValue="1"
   solutionStatusString="optimal"
   solutionMethodString="dual"
   primalFeasible="1"
   dualFeasible="1"
   simplexIterations="1"
   writeLevel="1"/>
 <quality
   epRHS="9.9999999999999995e-07"
   epOpt="9.9999999999999995e-07"
   maxPrimalInfeas="0"
   maxDualInfeas="0"
   maxPrimalResidual="4.2632564145606011e-14"
   maxDualResidual="1.4210854715202004e-14"
   maxX="5.7195652173913132"
   maxPi="2.4434782608695653"
   maxSlack="465.15760869565219"
   maxRedCost="26.199999999999982"
   kappa="298.42619928999909"/>
 <linearConstraints>
  <constraint name="c0" index="0" status="BS" slack="229" dual="-0"/>
  <constraint name="c1" index="1" status="BS" slack="300.00978260869567" dual="-0"/>
  <constraint name="c2" index="2" status="BS" slack="153.28478260869568" dual="-0"/>
  <constraint name="c3" index="3" status="BS" slack="409.8336956521739" dual="-0"/>
  <constraint name="c4" index="4" status="BS" slack="465.15760869565219" dual="-0"/>
  <constraint name="c5" index="5" status="BS" slack="417.24456521739131" dual="-0"/>
  <constraint name="c6" index="6" status="BS" slack="250.74347826086955" dual="-0"/>
  <constraint name="c7" index="7" status="LL" slack="0" dual="0.24782608695652164"/>
  <constraint name="c8" index="8" status="BS" slack="431.33695652173918" dual="-0"/>
  <constraint name="c9" index="9" status="LL" slack="0" dual="-0"/>
  <constraint name="c10" index="10" status="BS" slack="349.14347826086959" dual="-0"/>
  <constraint name="c11" index="11" status="BS" slack="1.0434782608695734" dual="-0"/>
  <constraint name="cut_1" index="12" status="LL" slack="0" dual="2.4434782608695653"/>
 </linearConstraints>
 <variables>
  <variable name="x0" index="0" status="BS" value="0.68152173913043479" reducedCost="0"/>
  <variable name="x1" index="1" status="LL" value="0" reducedCost="-19.204347826086959"/>
  <variable name="x2" index="2" status="LL" value="0" reducedCost="-2.2695652173913174"/>
  <variable name="x3" index="3" status="LL" value="0" reducedCost="-26.199999999999982"/>
  <variable name="x4" index="4" status="LL" value="0" reducedCost="-8.8217391304347856"/>
  <variable name="x5" index="5" status="BS" value="0.33913043478260863" reducedCost="0"/>
  <variable name="s0" index="6" status="LL" value="0" reducedCost="0"/>
  <variable name="s1" index="7" status="LL" value="0" reducedCost="0"/>
  <variable name="s2" index="8" status="LL" value="0" reducedCost="0"/>
  <variable name="s3" index="9" status="LL" value="0" reducedCost="0"/>
  <variable name="s4" index="10" status="LL" value="0" reducedCost="0"/>
  <variable name="s5" index="11" status="LL" value="0" reducedCost="0"/>
  <variable name="s6" index="12" status="LL" value="0" reducedCost="0"/>
  <variable name="s7" index="13" status="LL" value="0" reducedCost="-0.24782608695652164"/>
  <variable name="s8" index="14" status="LL" value="0" reducedCost="0"/>
  <variable name="s9" index="15" status="BS" value="5.7195652173913132" reducedCost="0"/>
  <variable name="s10" index="16" status="LL" value="0" reducedCost="0"/>
  <variable name="s11" index="17" status="LL" value="0" reducedCost="0"/>
 </variables>
 <objectiveValues>
  <objective index="0" name="" value="100.70869565217392"/>
 </objectiveValues>
</CPLEXSolution>
